(set-info :smt-lib-version 2.6)
(set-logic ALL)
(set-info :source |
Benchmarks used in the followin paper:
Big proof engines as little proof engines: new results on rewrite-based satisfiability procedure
Alessandro Armando, Maria Paola Bonacina, Silvio Ranise, Stephan Schulz. 
PDPAR'05
http://www.ai.dist.unige.it/pdpar05/


|)
(set-info :category "crafted")
(set-info :status unsat)

(declare-sort Element 0)
(declare-fun a_510 () (Seq Element))
(declare-fun a_511 () (Seq Element))
(declare-fun a_513 () (Seq Element))
(declare-fun a_514 () (Seq Element))
(declare-fun a_516 () (Seq Element))
(declare-fun a_518 () (Seq Element))
(declare-fun a_520 () (Seq Element))
(declare-fun a_522 () (Seq Element))
(declare-fun a_524 () (Seq Element))
(declare-fun a_526 () (Seq Element))
(declare-fun e_509 () Element)
(declare-fun e_512 () Element)
(declare-fun e_515 () Element)
(declare-fun e_517 () Element)
(declare-fun e_519 () Element)
(declare-fun e_521 () Element)
(declare-fun e_523 () Element)
(declare-fun e_525 () Element)
(declare-fun a1 () (Seq Element))
(declare-fun i0 () Int)
(declare-fun i1 () Int)
(declare-fun i2 () Int)
(declare-fun i3 () Int)
(declare-fun i4 () Int)
(assert (= a_510 (seq.update a1 i1 (seq.unit e_509))))
(assert (= a_511 (seq.update a_510 i1 (seq.unit e_509))))
(assert (= a_513 (seq.update a_511 i3 (seq.unit e_512))))
(assert (= a_514 (seq.update a_513 i3 (seq.unit e_512))))
(assert (= a_516 (seq.update a_514 i2 (seq.unit e_515))))
(assert (= a_518 (seq.update a_516 i3 (seq.unit e_517))))
(assert (= a_520 (seq.update a_518 i3 (seq.unit e_519))))
(assert (= a_522 (seq.update a_520 i4 (seq.unit e_521))))
(assert (= a_524 (seq.update a_522 i3 (seq.unit e_523))))
(assert (= a_526 (seq.update a_524 i0 (seq.unit e_525))))
(assert (= e_509 (seq.nth a1 i1)))
(assert (= e_512 (seq.nth a_511 i3)))
(assert (= e_515 (seq.nth a_514 i3)))
(assert (= e_517 (seq.nth a_514 i2)))
(assert (= e_519 (seq.nth a_518 i4)))
(assert (= e_521 (seq.nth a_518 i3)))
(assert (= e_523 (seq.nth a_522 i0)))
(assert (= e_525 (seq.nth a_522 i3)))
(assert (not (= a_526 a_526)))
(check-sat)
(exit)
